outputs/case_227.model.txt
improvement_within_two_months = False
has_major_disciplinary_record = True
control_activities_executed = False
financial_report_audited_by_cpa = False
professional_experience_years = 0
audit_supervision_performed = False
risk_assessment_performed = False
internal_control_audit_by_cpa = False
special_audit_by_cpa_performed = False
information_and_communication_effective = False
passed_cia_exam = False
internal_control_deficiencies_communicated = False
monitoring_activities_performed = False
annual_audit_plan_prepared = False
control_environment_established = False
college_graduate = False
passed_high_exam = False
self_audit_reports_reviewed = 1
audit_organization_planned = False
financial_experience_years = 0
internal_audit_experience_years = 0
improvement_followed_up = False
audit_leader_experience_years = 0
received_financial_training = False
passed_equivalent_exam = False
audit_staff_ratio = 1/2
audit_manual_and_workpapers_prepared = False
internal_operation_executed = True
internal_derivative_operation_established = True
internal_handling_established = True
internal_handling_system_established = True
internal_derivative_operation_executed = True
derivative_operation_ok = True
internal_audit_staff_qualified = False
internal_control_executed = True
internal_handling_executed = True
personal_data_and_aml_audit_performed = False
internal_control_compliance = False
internal_operation_established = True
internal_control_established = True
internal_operation_system_executed = True
internal_control_system_executed = True
internal_audit_reports_reviewed = 0
internal_derivative_operation_system_established = True
internal_audit_staff_compliance = False
internal_derivative_operation_system_executed = True
internal_operation_system_established = True
internal_audit_unit_duties_performed = False
penalty = False
internal_handling_system_executed = True
internal_control_and_handling_and_operation_ok = True
annual_financial_report_audit_performed = False
internal_control_system_established = True